(set-logic QF_NRA_ODE)
(declare-fun xRDR () Real)
(declare-fun xAIL () Real)
(declare-fun tau () Real)
(declare-fun rRDR () Real)
(declare-fun rAIL () Real)
(declare-fun r () Real)
(declare-fun psi () Real)
(declare-fun phi () Real)
(declare-fun p () Real)
(declare-fun gRDR () Real)
(declare-fun gDir () Real)
(declare-fun gAIL () Real)
(declare-fun beta () Real)
(declare-fun xRDR_0_0 () Real)
(declare-fun xRDR_0_t () Real)
(declare-fun xRDR_1_0 () Real)
(declare-fun xRDR_1_t () Real)
(declare-fun xRDR_2_0 () Real)
(declare-fun xRDR_2_t () Real)
(declare-fun xRDR_3_0 () Real)
(declare-fun xRDR_3_t () Real)
(declare-fun xRDR_4_0 () Real)
(declare-fun xRDR_4_t () Real)
(declare-fun xRDR_5_0 () Real)
(declare-fun xRDR_5_t () Real)
(declare-fun xRDR_6_0 () Real)
(declare-fun xRDR_6_t () Real)
(declare-fun xAIL_0_0 () Real)
(declare-fun xAIL_0_t () Real)
(declare-fun xAIL_1_0 () Real)
(declare-fun xAIL_1_t () Real)
(declare-fun xAIL_2_0 () Real)
(declare-fun xAIL_2_t () Real)
(declare-fun xAIL_3_0 () Real)
(declare-fun xAIL_3_t () Real)
(declare-fun xAIL_4_0 () Real)
(declare-fun xAIL_4_t () Real)
(declare-fun xAIL_5_0 () Real)
(declare-fun xAIL_5_t () Real)
(declare-fun xAIL_6_0 () Real)
(declare-fun xAIL_6_t () Real)
(declare-fun tau_0_0 () Real)
(declare-fun tau_0_t () Real)
(declare-fun tau_1_0 () Real)
(declare-fun tau_1_t () Real)
(declare-fun tau_2_0 () Real)
(declare-fun tau_2_t () Real)
(declare-fun tau_3_0 () Real)
(declare-fun tau_3_t () Real)
(declare-fun tau_4_0 () Real)
(declare-fun tau_4_t () Real)
(declare-fun tau_5_0 () Real)
(declare-fun tau_5_t () Real)
(declare-fun tau_6_0 () Real)
(declare-fun tau_6_t () Real)
(declare-fun rRDR_0_0 () Real)
(declare-fun rRDR_0_t () Real)
(declare-fun rRDR_1_0 () Real)
(declare-fun rRDR_1_t () Real)
(declare-fun rRDR_2_0 () Real)
(declare-fun rRDR_2_t () Real)
(declare-fun rRDR_3_0 () Real)
(declare-fun rRDR_3_t () Real)
(declare-fun rRDR_4_0 () Real)
(declare-fun rRDR_4_t () Real)
(declare-fun rRDR_5_0 () Real)
(declare-fun rRDR_5_t () Real)
(declare-fun rRDR_6_0 () Real)
(declare-fun rRDR_6_t () Real)
(declare-fun rAIL_0_0 () Real)
(declare-fun rAIL_0_t () Real)
(declare-fun rAIL_1_0 () Real)
(declare-fun rAIL_1_t () Real)
(declare-fun rAIL_2_0 () Real)
(declare-fun rAIL_2_t () Real)
(declare-fun rAIL_3_0 () Real)
(declare-fun rAIL_3_t () Real)
(declare-fun rAIL_4_0 () Real)
(declare-fun rAIL_4_t () Real)
(declare-fun rAIL_5_0 () Real)
(declare-fun rAIL_5_t () Real)
(declare-fun rAIL_6_0 () Real)
(declare-fun rAIL_6_t () Real)
(declare-fun r_0_0 () Real)
(declare-fun r_0_t () Real)
(declare-fun r_1_0 () Real)
(declare-fun r_1_t () Real)
(declare-fun r_2_0 () Real)
(declare-fun r_2_t () Real)
(declare-fun r_3_0 () Real)
(declare-fun r_3_t () Real)
(declare-fun r_4_0 () Real)
(declare-fun r_4_t () Real)
(declare-fun r_5_0 () Real)
(declare-fun r_5_t () Real)
(declare-fun r_6_0 () Real)
(declare-fun r_6_t () Real)
(declare-fun psi_0_0 () Real)
(declare-fun psi_0_t () Real)
(declare-fun psi_1_0 () Real)
(declare-fun psi_1_t () Real)
(declare-fun psi_2_0 () Real)
(declare-fun psi_2_t () Real)
(declare-fun psi_3_0 () Real)
(declare-fun psi_3_t () Real)
(declare-fun psi_4_0 () Real)
(declare-fun psi_4_t () Real)
(declare-fun psi_5_0 () Real)
(declare-fun psi_5_t () Real)
(declare-fun psi_6_0 () Real)
(declare-fun psi_6_t () Real)
(declare-fun phi_0_0 () Real)
(declare-fun phi_0_t () Real)
(declare-fun phi_1_0 () Real)
(declare-fun phi_1_t () Real)
(declare-fun phi_2_0 () Real)
(declare-fun phi_2_t () Real)
(declare-fun phi_3_0 () Real)
(declare-fun phi_3_t () Real)
(declare-fun phi_4_0 () Real)
(declare-fun phi_4_t () Real)
(declare-fun phi_5_0 () Real)
(declare-fun phi_5_t () Real)
(declare-fun phi_6_0 () Real)
(declare-fun phi_6_t () Real)
(declare-fun p_0_0 () Real)
(declare-fun p_0_t () Real)
(declare-fun p_1_0 () Real)
(declare-fun p_1_t () Real)
(declare-fun p_2_0 () Real)
(declare-fun p_2_t () Real)
(declare-fun p_3_0 () Real)
(declare-fun p_3_t () Real)
(declare-fun p_4_0 () Real)
(declare-fun p_4_t () Real)
(declare-fun p_5_0 () Real)
(declare-fun p_5_t () Real)
(declare-fun p_6_0 () Real)
(declare-fun p_6_t () Real)
(declare-fun gRDR_0_0 () Real)
(declare-fun gRDR_0_t () Real)
(declare-fun gRDR_1_0 () Real)
(declare-fun gRDR_1_t () Real)
(declare-fun gRDR_2_0 () Real)
(declare-fun gRDR_2_t () Real)
(declare-fun gRDR_3_0 () Real)
(declare-fun gRDR_3_t () Real)
(declare-fun gRDR_4_0 () Real)
(declare-fun gRDR_4_t () Real)
(declare-fun gRDR_5_0 () Real)
(declare-fun gRDR_5_t () Real)
(declare-fun gRDR_6_0 () Real)
(declare-fun gRDR_6_t () Real)
(declare-fun gDir_0_0 () Real)
(declare-fun gDir_0_t () Real)
(declare-fun gDir_1_0 () Real)
(declare-fun gDir_1_t () Real)
(declare-fun gDir_2_0 () Real)
(declare-fun gDir_2_t () Real)
(declare-fun gDir_3_0 () Real)
(declare-fun gDir_3_t () Real)
(declare-fun gDir_4_0 () Real)
(declare-fun gDir_4_t () Real)
(declare-fun gDir_5_0 () Real)
(declare-fun gDir_5_t () Real)
(declare-fun gDir_6_0 () Real)
(declare-fun gDir_6_t () Real)
(declare-fun gAIL_0_0 () Real)
(declare-fun gAIL_0_t () Real)
(declare-fun gAIL_1_0 () Real)
(declare-fun gAIL_1_t () Real)
(declare-fun gAIL_2_0 () Real)
(declare-fun gAIL_2_t () Real)
(declare-fun gAIL_3_0 () Real)
(declare-fun gAIL_3_t () Real)
(declare-fun gAIL_4_0 () Real)
(declare-fun gAIL_4_t () Real)
(declare-fun gAIL_5_0 () Real)
(declare-fun gAIL_5_t () Real)
(declare-fun gAIL_6_0 () Real)
(declare-fun gAIL_6_t () Real)
(declare-fun beta_0_0 () Real)
(declare-fun beta_0_t () Real)
(declare-fun beta_1_0 () Real)
(declare-fun beta_1_t () Real)
(declare-fun beta_2_0 () Real)
(declare-fun beta_2_t () Real)
(declare-fun beta_3_0 () Real)
(declare-fun beta_3_t () Real)
(declare-fun beta_4_0 () Real)
(declare-fun beta_4_t () Real)
(declare-fun beta_5_0 () Real)
(declare-fun beta_5_t () Real)
(declare-fun beta_6_0 () Real)
(declare-fun beta_6_t () Real)
(declare-fun time_0 () Real)
(declare-fun time_1 () Real)
(declare-fun time_2 () Real)
(declare-fun time_3 () Real)
(declare-fun time_4 () Real)
(declare-fun time_5 () Real)
(declare-fun time_6 () Real)
(declare-fun mode_0 () Real)
(declare-fun mode_1 () Real)
(declare-fun mode_2 () Real)
(declare-fun mode_3 () Real)
(declare-fun mode_4 () Real)
(declare-fun mode_5 () Real)
(declare-fun mode_6 () Real)
(define-ode flow_1 ((= d/dt[beta] (+ (- (/ (* (* 13.97 300) (+ (+ (* (/ (* -0.02 180) 3.14159) beta) (/ (* 0.021 xAIL) 20)) (/ (* 0.086 xRDR) 30))) (* 20500 111.64)) r) (* (* (/ 111.64 9.80555) (cos beta)) (sin phi)))) (= d/dt[gAIL] 0) (= d/dt[gDir] 0) (= d/dt[gRDR] 0) (= d/dt[p] (+ (* (* (+ (* -0.77 r) (* 0.02755 p)) r) (/ (sin phi) (cos phi))) (* (* (* 13.97 30) 300) (+ (* 0.0001055 (+ (+ (* (/ (* -0.0008 180) 3.14159) beta) (/ (* 0.05 xAIL) 20)) (/ (* 0.013 xRDR) 30))) (* 1.642e-06 (+ (+ (* (/ (* 0.02 180) 3.14159) beta) (/ (* -0.01 xAIL) 20)) (/ (* -0.04 xRDR) 30))))))) (= d/dt[phi] p) (= d/dt[psi] (* (/ 9.80555 111.64) (/ (sin phi) (cos phi)))) (= d/dt[r] (+ (* (* (- (* -0.7336 p) (* 0.02755 r)) r) (/ (sin phi) (cos phi))) (* (* (* 13.97 30) 300) (+ (* 1.642e-06 (+ (+ (* (/ (* -0.0008 180) 3.14159) beta) (/ (* 0.05 xAIL) 20)) (/ (* 0.013 xRDR) 30))) (* 1.587e-05 (+ (+ (* (/ (* 0.02 180) 3.14159) beta) (/ (* -0.01 xAIL) 20)) (/ (* -0.04 xRDR) 30))))))) (= d/dt[rAIL] 0) (= d/dt[rRDR] 0) (= d/dt[tau] 1) (= d/dt[xAIL] rAIL) (= d/dt[xRDR] rRDR)))
(assert (<= -6 xRDR_0_0))
(assert (<= xRDR_0_0 10))
(assert (<= -6 xRDR_0_t))
(assert (<= xRDR_0_t 10))
(assert (<= -6 xRDR_1_0))
(assert (<= xRDR_1_0 10))
(assert (<= -6 xRDR_1_t))
(assert (<= xRDR_1_t 10))
(assert (<= -6 xRDR_2_0))
(assert (<= xRDR_2_0 10))
(assert (<= -6 xRDR_2_t))
(assert (<= xRDR_2_t 10))
(assert (<= -6 xRDR_3_0))
(assert (<= xRDR_3_0 10))
(assert (<= -6 xRDR_3_t))
(assert (<= xRDR_3_t 10))
(assert (<= -6 xRDR_4_0))
(assert (<= xRDR_4_0 10))
(assert (<= -6 xRDR_4_t))
(assert (<= xRDR_4_t 10))
(assert (<= -6 xRDR_5_0))
(assert (<= xRDR_5_0 10))
(assert (<= -6 xRDR_5_t))
(assert (<= xRDR_5_t 10))
(assert (<= -6 xRDR_6_0))
(assert (<= xRDR_6_0 10))
(assert (<= -6 xRDR_6_t))
(assert (<= xRDR_6_t 10))
(assert (<= -3.14159 xAIL_0_0))
(assert (<= xAIL_0_0 3.14159))
(assert (<= -3.14159 xAIL_0_t))
(assert (<= xAIL_0_t 3.14159))
(assert (<= -3.14159 xAIL_1_0))
(assert (<= xAIL_1_0 3.14159))
(assert (<= -3.14159 xAIL_1_t))
(assert (<= xAIL_1_t 3.14159))
(assert (<= -3.14159 xAIL_2_0))
(assert (<= xAIL_2_0 3.14159))
(assert (<= -3.14159 xAIL_2_t))
(assert (<= xAIL_2_t 3.14159))
(assert (<= -3.14159 xAIL_3_0))
(assert (<= xAIL_3_0 3.14159))
(assert (<= -3.14159 xAIL_3_t))
(assert (<= xAIL_3_t 3.14159))
(assert (<= -3.14159 xAIL_4_0))
(assert (<= xAIL_4_0 3.14159))
(assert (<= -3.14159 xAIL_4_t))
(assert (<= xAIL_4_t 3.14159))
(assert (<= -3.14159 xAIL_5_0))
(assert (<= xAIL_5_0 3.14159))
(assert (<= -3.14159 xAIL_5_t))
(assert (<= xAIL_5_t 3.14159))
(assert (<= -3.14159 xAIL_6_0))
(assert (<= xAIL_6_0 3.14159))
(assert (<= -3.14159 xAIL_6_t))
(assert (<= xAIL_6_t 3.14159))
(assert (<= 0 tau_0_0))
(assert (<= tau_0_0 1))
(assert (<= 0 tau_0_t))
(assert (<= tau_0_t 1))
(assert (<= 0 tau_1_0))
(assert (<= tau_1_0 1))
(assert (<= 0 tau_1_t))
(assert (<= tau_1_t 1))
(assert (<= 0 tau_2_0))
(assert (<= tau_2_0 1))
(assert (<= 0 tau_2_t))
(assert (<= tau_2_t 1))
(assert (<= 0 tau_3_0))
(assert (<= tau_3_0 1))
(assert (<= 0 tau_3_t))
(assert (<= tau_3_t 1))
(assert (<= 0 tau_4_0))
(assert (<= tau_4_0 1))
(assert (<= 0 tau_4_t))
(assert (<= tau_4_t 1))
(assert (<= 0 tau_5_0))
(assert (<= tau_5_0 1))
(assert (<= 0 tau_5_t))
(assert (<= tau_5_t 1))
(assert (<= 0 tau_6_0))
(assert (<= tau_6_0 1))
(assert (<= 0 tau_6_t))
(assert (<= tau_6_t 1))
(assert (<= -6 rRDR_0_0))
(assert (<= rRDR_0_0 6))
(assert (<= -6 rRDR_0_t))
(assert (<= rRDR_0_t 6))
(assert (<= -6 rRDR_1_0))
(assert (<= rRDR_1_0 6))
(assert (<= -6 rRDR_1_t))
(assert (<= rRDR_1_t 6))
(assert (<= -6 rRDR_2_0))
(assert (<= rRDR_2_0 6))
(assert (<= -6 rRDR_2_t))
(assert (<= rRDR_2_t 6))
(assert (<= -6 rRDR_3_0))
(assert (<= rRDR_3_0 6))
(assert (<= -6 rRDR_3_t))
(assert (<= rRDR_3_t 6))
(assert (<= -6 rRDR_4_0))
(assert (<= rRDR_4_0 6))
(assert (<= -6 rRDR_4_t))
(assert (<= rRDR_4_t 6))
(assert (<= -6 rRDR_5_0))
(assert (<= rRDR_5_0 6))
(assert (<= -6 rRDR_5_t))
(assert (<= rRDR_5_t 6))
(assert (<= -6 rRDR_6_0))
(assert (<= rRDR_6_0 6))
(assert (<= -6 rRDR_6_t))
(assert (<= rRDR_6_t 6))
(assert (<= -3.14159 rAIL_0_0))
(assert (<= rAIL_0_0 3.14159))
(assert (<= -3.14159 rAIL_0_t))
(assert (<= rAIL_0_t 3.14159))
(assert (<= -3.14159 rAIL_1_0))
(assert (<= rAIL_1_0 3.14159))
(assert (<= -3.14159 rAIL_1_t))
(assert (<= rAIL_1_t 3.14159))
(assert (<= -3.14159 rAIL_2_0))
(assert (<= rAIL_2_0 3.14159))
(assert (<= -3.14159 rAIL_2_t))
(assert (<= rAIL_2_t 3.14159))
(assert (<= -3.14159 rAIL_3_0))
(assert (<= rAIL_3_0 3.14159))
(assert (<= -3.14159 rAIL_3_t))
(assert (<= rAIL_3_t 3.14159))
(assert (<= -3.14159 rAIL_4_0))
(assert (<= rAIL_4_0 3.14159))
(assert (<= -3.14159 rAIL_4_t))
(assert (<= rAIL_4_t 3.14159))
(assert (<= -3.14159 rAIL_5_0))
(assert (<= rAIL_5_0 3.14159))
(assert (<= -3.14159 rAIL_5_t))
(assert (<= rAIL_5_t 3.14159))
(assert (<= -3.14159 rAIL_6_0))
(assert (<= rAIL_6_0 3.14159))
(assert (<= -3.14159 rAIL_6_t))
(assert (<= rAIL_6_t 3.14159))
(assert (<= -2.5 r_0_0))
(assert (<= r_0_0 3.5))
(assert (<= -2.5 r_0_t))
(assert (<= r_0_t 3.5))
(assert (<= -2.5 r_1_0))
(assert (<= r_1_0 3.5))
(assert (<= -2.5 r_1_t))
(assert (<= r_1_t 3.5))
(assert (<= -2.5 r_2_0))
(assert (<= r_2_0 3.5))
(assert (<= -2.5 r_2_t))
(assert (<= r_2_t 3.5))
(assert (<= -2.5 r_3_0))
(assert (<= r_3_0 3.5))
(assert (<= -2.5 r_3_t))
(assert (<= r_3_t 3.5))
(assert (<= -2.5 r_4_0))
(assert (<= r_4_0 3.5))
(assert (<= -2.5 r_4_t))
(assert (<= r_4_t 3.5))
(assert (<= -2.5 r_5_0))
(assert (<= r_5_0 3.5))
(assert (<= -2.5 r_5_t))
(assert (<= r_5_t 3.5))
(assert (<= -2.5 r_6_0))
(assert (<= r_6_0 3.5))
(assert (<= -2.5 r_6_t))
(assert (<= r_6_t 3.5))
(assert (<= -1.5 psi_0_0))
(assert (<= psi_0_0 1.5))
(assert (<= -1.5 psi_0_t))
(assert (<= psi_0_t 1.5))
(assert (<= -1.5 psi_1_0))
(assert (<= psi_1_0 1.5))
(assert (<= -1.5 psi_1_t))
(assert (<= psi_1_t 1.5))
(assert (<= -1.5 psi_2_0))
(assert (<= psi_2_0 1.5))
(assert (<= -1.5 psi_2_t))
(assert (<= psi_2_t 1.5))
(assert (<= -1.5 psi_3_0))
(assert (<= psi_3_0 1.5))
(assert (<= -1.5 psi_3_t))
(assert (<= psi_3_t 1.5))
(assert (<= -1.5 psi_4_0))
(assert (<= psi_4_0 1.5))
(assert (<= -1.5 psi_4_t))
(assert (<= psi_4_t 1.5))
(assert (<= -1.5 psi_5_0))
(assert (<= psi_5_0 1.5))
(assert (<= -1.5 psi_5_t))
(assert (<= psi_5_t 1.5))
(assert (<= -1.5 psi_6_0))
(assert (<= psi_6_0 1.5))
(assert (<= -1.5 psi_6_t))
(assert (<= psi_6_t 1.5))
(assert (<= -1.5 phi_0_0))
(assert (<= phi_0_0 1.5))
(assert (<= -1.5 phi_0_t))
(assert (<= phi_0_t 1.5))
(assert (<= -1.5 phi_1_0))
(assert (<= phi_1_0 1.5))
(assert (<= -1.5 phi_1_t))
(assert (<= phi_1_t 1.5))
(assert (<= -1.5 phi_2_0))
(assert (<= phi_2_0 1.5))
(assert (<= -1.5 phi_2_t))
(assert (<= phi_2_t 1.5))
(assert (<= -1.5 phi_3_0))
(assert (<= phi_3_0 1.5))
(assert (<= -1.5 phi_3_t))
(assert (<= phi_3_t 1.5))
(assert (<= -1.5 phi_4_0))
(assert (<= phi_4_0 1.5))
(assert (<= -1.5 phi_4_t))
(assert (<= phi_4_t 1.5))
(assert (<= -1.5 phi_5_0))
(assert (<= phi_5_0 1.5))
(assert (<= -1.5 phi_5_t))
(assert (<= phi_5_t 1.5))
(assert (<= -1.5 phi_6_0))
(assert (<= phi_6_0 1.5))
(assert (<= -1.5 phi_6_t))
(assert (<= phi_6_t 1.5))
(assert (<= -2.5 p_0_0))
(assert (<= p_0_0 2.5))
(assert (<= -2.5 p_0_t))
(assert (<= p_0_t 2.5))
(assert (<= -2.5 p_1_0))
(assert (<= p_1_0 2.5))
(assert (<= -2.5 p_1_t))
(assert (<= p_1_t 2.5))
(assert (<= -2.5 p_2_0))
(assert (<= p_2_0 2.5))
(assert (<= -2.5 p_2_t))
(assert (<= p_2_t 2.5))
(assert (<= -2.5 p_3_0))
(assert (<= p_3_0 2.5))
(assert (<= -2.5 p_3_t))
(assert (<= p_3_t 2.5))
(assert (<= -2.5 p_4_0))
(assert (<= p_4_0 2.5))
(assert (<= -2.5 p_4_t))
(assert (<= p_4_t 2.5))
(assert (<= -2.5 p_5_0))
(assert (<= p_5_0 2.5))
(assert (<= -2.5 p_5_t))
(assert (<= p_5_t 2.5))
(assert (<= -2.5 p_6_0))
(assert (<= p_6_0 2.5))
(assert (<= -2.5 p_6_t))
(assert (<= p_6_t 2.5))
(assert (<= -6 gRDR_0_0))
(assert (<= gRDR_0_0 6))
(assert (<= -6 gRDR_0_t))
(assert (<= gRDR_0_t 6))
(assert (<= -6 gRDR_1_0))
(assert (<= gRDR_1_0 6))
(assert (<= -6 gRDR_1_t))
(assert (<= gRDR_1_t 6))
(assert (<= -6 gRDR_2_0))
(assert (<= gRDR_2_0 6))
(assert (<= -6 gRDR_2_t))
(assert (<= gRDR_2_t 6))
(assert (<= -6 gRDR_3_0))
(assert (<= gRDR_3_0 6))
(assert (<= -6 gRDR_3_t))
(assert (<= gRDR_3_t 6))
(assert (<= -6 gRDR_4_0))
(assert (<= gRDR_4_0 6))
(assert (<= -6 gRDR_4_t))
(assert (<= gRDR_4_t 6))
(assert (<= -6 gRDR_5_0))
(assert (<= gRDR_5_0 6))
(assert (<= -6 gRDR_5_t))
(assert (<= gRDR_5_t 6))
(assert (<= -6 gRDR_6_0))
(assert (<= gRDR_6_0 6))
(assert (<= -6 gRDR_6_t))
(assert (<= gRDR_6_t 6))
(assert (<= -3.14159 gDir_0_0))
(assert (<= gDir_0_0 3.14159))
(assert (<= -3.14159 gDir_0_t))
(assert (<= gDir_0_t 3.14159))
(assert (<= -3.14159 gDir_1_0))
(assert (<= gDir_1_0 3.14159))
(assert (<= -3.14159 gDir_1_t))
(assert (<= gDir_1_t 3.14159))
(assert (<= -3.14159 gDir_2_0))
(assert (<= gDir_2_0 3.14159))
(assert (<= -3.14159 gDir_2_t))
(assert (<= gDir_2_t 3.14159))
(assert (<= -3.14159 gDir_3_0))
(assert (<= gDir_3_0 3.14159))
(assert (<= -3.14159 gDir_3_t))
(assert (<= gDir_3_t 3.14159))
(assert (<= -3.14159 gDir_4_0))
(assert (<= gDir_4_0 3.14159))
(assert (<= -3.14159 gDir_4_t))
(assert (<= gDir_4_t 3.14159))
(assert (<= -3.14159 gDir_5_0))
(assert (<= gDir_5_0 3.14159))
(assert (<= -3.14159 gDir_5_t))
(assert (<= gDir_5_t 3.14159))
(assert (<= -3.14159 gDir_6_0))
(assert (<= gDir_6_0 3.14159))
(assert (<= -3.14159 gDir_6_t))
(assert (<= gDir_6_t 3.14159))
(assert (<= -3.14159 gAIL_0_0))
(assert (<= gAIL_0_0 3.14159))
(assert (<= -3.14159 gAIL_0_t))
(assert (<= gAIL_0_t 3.14159))
(assert (<= -3.14159 gAIL_1_0))
(assert (<= gAIL_1_0 3.14159))
(assert (<= -3.14159 gAIL_1_t))
(assert (<= gAIL_1_t 3.14159))
(assert (<= -3.14159 gAIL_2_0))
(assert (<= gAIL_2_0 3.14159))
(assert (<= -3.14159 gAIL_2_t))
(assert (<= gAIL_2_t 3.14159))
(assert (<= -3.14159 gAIL_3_0))
(assert (<= gAIL_3_0 3.14159))
(assert (<= -3.14159 gAIL_3_t))
(assert (<= gAIL_3_t 3.14159))
(assert (<= -3.14159 gAIL_4_0))
(assert (<= gAIL_4_0 3.14159))
(assert (<= -3.14159 gAIL_4_t))
(assert (<= gAIL_4_t 3.14159))
(assert (<= -3.14159 gAIL_5_0))
(assert (<= gAIL_5_0 3.14159))
(assert (<= -3.14159 gAIL_5_t))
(assert (<= gAIL_5_t 3.14159))
(assert (<= -3.14159 gAIL_6_0))
(assert (<= gAIL_6_0 3.14159))
(assert (<= -3.14159 gAIL_6_t))
(assert (<= gAIL_6_t 3.14159))
(assert (<= -1.5 beta_0_0))
(assert (<= beta_0_0 1.5))
(assert (<= -1.5 beta_0_t))
(assert (<= beta_0_t 1.5))
(assert (<= -1.5 beta_1_0))
(assert (<= beta_1_0 1.5))
(assert (<= -1.5 beta_1_t))
(assert (<= beta_1_t 1.5))
(assert (<= -1.5 beta_2_0))
(assert (<= beta_2_0 1.5))
(assert (<= -1.5 beta_2_t))
(assert (<= beta_2_t 1.5))
(assert (<= -1.5 beta_3_0))
(assert (<= beta_3_0 1.5))
(assert (<= -1.5 beta_3_t))
(assert (<= beta_3_t 1.5))
(assert (<= -1.5 beta_4_0))
(assert (<= beta_4_0 1.5))
(assert (<= -1.5 beta_4_t))
(assert (<= beta_4_t 1.5))
(assert (<= -1.5 beta_5_0))
(assert (<= beta_5_0 1.5))
(assert (<= -1.5 beta_5_t))
(assert (<= beta_5_t 1.5))
(assert (<= -1.5 beta_6_0))
(assert (<= beta_6_0 1.5))
(assert (<= -1.5 beta_6_t))
(assert (<= beta_6_t 1.5))
(assert (<= 0 time_0 [0.000000]))
(assert (<= time_0 1 [0.000000]))
(assert (<= 0 time_1 [0.000000]))
(assert (<= time_1 1 [0.000000]))
(assert (<= 0 time_2 [0.000000]))
(assert (<= time_2 1 [0.000000]))
(assert (<= 0 time_3 [0.000000]))
(assert (<= time_3 1 [0.000000]))
(assert (<= 0 time_4 [0.000000]))
(assert (<= time_4 1 [0.000000]))
(assert (<= 0 time_5 [0.000000]))
(assert (<= time_5 1 [0.000000]))
(assert (<= 0 time_6 [0.000000]))
(assert (<= time_6 1 [0.000000]))
(assert (<= 1 mode_0))
(assert (<= mode_0 1))
(assert (<= 1 mode_1))
(assert (<= mode_1 1))
(assert (<= 1 mode_2))
(assert (<= mode_2 1))
(assert (<= 1 mode_3))
(assert (<= mode_3 1))
(assert (<= 1 mode_4))
(assert (<= mode_4 1))
(assert (<= 1 mode_5))
(assert (<= mode_5 1))
(assert (<= 1 mode_6))
(assert (<= mode_6 1))
(assert (and (and (= tau_0_0 0) (= gDir_0_0 0.5) (= gRDR_0_0 0) (= rRDR_0_0 0.5) (= xRDR_0_0 0) (= gAIL_0_0 0) (= rAIL_0_0 0.25) (= xAIL_0_0 0) (= psi_0_0 0) (= phi_0_0 0) (= r_0_0 0) (= p_0_0 0) (= beta_0_0 0)) (= mode_0 1) (= [beta_0_t gAIL_0_t gDir_0_t gRDR_0_t p_0_t phi_0_t psi_0_t r_0_t rAIL_0_t rRDR_0_t tau_0_t xAIL_0_t xRDR_0_t] (integral 0. time_0 [beta_0_0 gAIL_0_0 gDir_0_0 gRDR_0_0 p_0_0 phi_0_0 psi_0_0 r_0_0 rAIL_0_0 rRDR_0_0 tau_0_0 xAIL_0_0 xRDR_0_0] flow_1)) (= mode_0 1) (forall_t 1 [0 time_0] (>= tau_0_t 0)) (>= tau_0_t 0) (>= tau_0_0 0) (forall_t 1 [0 time_0] (<= tau_0_t 1)) (<= tau_0_t 1) (<= tau_0_0 1) (= mode_1 1) (= tau_0_t 1) (= tau_1_0 0) (= gDir_1_0 gDir_0_t) (= gRDR_1_0 gRDR_0_t) (or (and (= rRDR_1_0 -0.5) (< gRDR_0_t xRDR_0_t)) (and (= rRDR_1_0 0.5) (>= gRDR_0_t xRDR_0_t))) (= xRDR_1_0 xRDR_0_t) (or (and (= rAIL_1_0 -0.25) (< gAIL_0_t xAIL_0_t)) (and (= rAIL_1_0 0.25) (>= gAIL_0_t xAIL_0_t))) (= gAIL_1_0 gAIL_0_t) (= xAIL_1_0 xAIL_0_t) (= psi_1_0 psi_0_t) (= phi_1_0 phi_0_t) (= r_1_0 r_0_t) (= p_1_0 p_0_t) (= beta_1_0 beta_0_t) (= [beta_1_t gAIL_1_t gDir_1_t gRDR_1_t p_1_t phi_1_t psi_1_t r_1_t rAIL_1_t rRDR_1_t tau_1_t xAIL_1_t xRDR_1_t] (integral 0. time_1 [beta_1_0 gAIL_1_0 gDir_1_0 gRDR_1_0 p_1_0 phi_1_0 psi_1_0 r_1_0 rAIL_1_0 rRDR_1_0 tau_1_0 xAIL_1_0 xRDR_1_0] flow_1)) (= mode_1 1) (forall_t 1 [0 time_1] (>= tau_1_t 0)) (>= tau_1_t 0) (>= tau_1_0 0) (forall_t 1 [0 time_1] (<= tau_1_t 1)) (<= tau_1_t 1) (<= tau_1_0 1) (= mode_2 1) (= tau_1_t 1) (= tau_2_0 0) (= gDir_2_0 gDir_1_t) (= gRDR_2_0 gRDR_1_t) (or (and (= rRDR_2_0 -0.5) (< gRDR_1_t xRDR_1_t)) (and (= rRDR_2_0 0.5) (>= gRDR_1_t xRDR_1_t))) (= xRDR_2_0 xRDR_1_t) (or (and (= rAIL_2_0 -0.25) (< gAIL_1_t xAIL_1_t)) (and (= rAIL_2_0 0.25) (>= gAIL_1_t xAIL_1_t))) (= gAIL_2_0 gAIL_1_t) (= xAIL_2_0 xAIL_1_t) (= psi_2_0 psi_1_t) (= phi_2_0 phi_1_t) (= r_2_0 r_1_t) (= p_2_0 p_1_t) (= beta_2_0 beta_1_t) (= [beta_2_t gAIL_2_t gDir_2_t gRDR_2_t p_2_t phi_2_t psi_2_t r_2_t rAIL_2_t rRDR_2_t tau_2_t xAIL_2_t xRDR_2_t] (integral 0. time_2 [beta_2_0 gAIL_2_0 gDir_2_0 gRDR_2_0 p_2_0 phi_2_0 psi_2_0 r_2_0 rAIL_2_0 rRDR_2_0 tau_2_0 xAIL_2_0 xRDR_2_0] flow_1)) (= mode_2 1) (forall_t 1 [0 time_2] (>= tau_2_t 0)) (>= tau_2_t 0) (>= tau_2_0 0) (forall_t 1 [0 time_2] (<= tau_2_t 1)) (<= tau_2_t 1) (<= tau_2_0 1) (= mode_3 1) (= tau_2_t 1) (= tau_3_0 0) (= gDir_3_0 gDir_2_t) (= gRDR_3_0 gRDR_2_t) (or (and (= rRDR_3_0 -0.5) (< gRDR_2_t xRDR_2_t)) (and (= rRDR_3_0 0.5) (>= gRDR_2_t xRDR_2_t))) (= xRDR_3_0 xRDR_2_t) (or (and (= rAIL_3_0 -0.25) (< gAIL_2_t xAIL_2_t)) (and (= rAIL_3_0 0.25) (>= gAIL_2_t xAIL_2_t))) (= gAIL_3_0 gAIL_2_t) (= xAIL_3_0 xAIL_2_t) (= psi_3_0 psi_2_t) (= phi_3_0 phi_2_t) (= r_3_0 r_2_t) (= p_3_0 p_2_t) (= beta_3_0 beta_2_t) (= [beta_3_t gAIL_3_t gDir_3_t gRDR_3_t p_3_t phi_3_t psi_3_t r_3_t rAIL_3_t rRDR_3_t tau_3_t xAIL_3_t xRDR_3_t] (integral 0. time_3 [beta_3_0 gAIL_3_0 gDir_3_0 gRDR_3_0 p_3_0 phi_3_0 psi_3_0 r_3_0 rAIL_3_0 rRDR_3_0 tau_3_0 xAIL_3_0 xRDR_3_0] flow_1)) (= mode_3 1) (forall_t 1 [0 time_3] (>= tau_3_t 0)) (>= tau_3_t 0) (>= tau_3_0 0) (forall_t 1 [0 time_3] (<= tau_3_t 1)) (<= tau_3_t 1) (<= tau_3_0 1) (= mode_4 1) (= tau_3_t 1) (= tau_4_0 0) (= gDir_4_0 gDir_3_t) (= gRDR_4_0 gRDR_3_t) (or (and (= rRDR_4_0 -0.5) (< gRDR_3_t xRDR_3_t)) (and (= rRDR_4_0 0.5) (>= gRDR_3_t xRDR_3_t))) (= xRDR_4_0 xRDR_3_t) (or (and (= rAIL_4_0 -0.25) (< gAIL_3_t xAIL_3_t)) (and (= rAIL_4_0 0.25) (>= gAIL_3_t xAIL_3_t))) (= gAIL_4_0 gAIL_3_t) (= xAIL_4_0 xAIL_3_t) (= psi_4_0 psi_3_t) (= phi_4_0 phi_3_t) (= r_4_0 r_3_t) (= p_4_0 p_3_t) (= beta_4_0 beta_3_t) (= [beta_4_t gAIL_4_t gDir_4_t gRDR_4_t p_4_t phi_4_t psi_4_t r_4_t rAIL_4_t rRDR_4_t tau_4_t xAIL_4_t xRDR_4_t] (integral 0. time_4 [beta_4_0 gAIL_4_0 gDir_4_0 gRDR_4_0 p_4_0 phi_4_0 psi_4_0 r_4_0 rAIL_4_0 rRDR_4_0 tau_4_0 xAIL_4_0 xRDR_4_0] flow_1)) (= mode_4 1) (forall_t 1 [0 time_4] (>= tau_4_t 0)) (>= tau_4_t 0) (>= tau_4_0 0) (forall_t 1 [0 time_4] (<= tau_4_t 1)) (<= tau_4_t 1) (<= tau_4_0 1) (= mode_5 1) (= tau_4_t 1) (= tau_5_0 0) (= gDir_5_0 gDir_4_t) (= gRDR_5_0 gRDR_4_t) (or (and (= rRDR_5_0 -0.5) (< gRDR_4_t xRDR_4_t)) (and (= rRDR_5_0 0.5) (>= gRDR_4_t xRDR_4_t))) (= xRDR_5_0 xRDR_4_t) (or (and (= rAIL_5_0 -0.25) (< gAIL_4_t xAIL_4_t)) (and (= rAIL_5_0 0.25) (>= gAIL_4_t xAIL_4_t))) (= gAIL_5_0 gAIL_4_t) (= xAIL_5_0 xAIL_4_t) (= psi_5_0 psi_4_t) (= phi_5_0 phi_4_t) (= r_5_0 r_4_t) (= p_5_0 p_4_t) (= beta_5_0 beta_4_t) (= [beta_5_t gAIL_5_t gDir_5_t gRDR_5_t p_5_t phi_5_t psi_5_t r_5_t rAIL_5_t rRDR_5_t tau_5_t xAIL_5_t xRDR_5_t] (integral 0. time_5 [beta_5_0 gAIL_5_0 gDir_5_0 gRDR_5_0 p_5_0 phi_5_0 psi_5_0 r_5_0 rAIL_5_0 rRDR_5_0 tau_5_0 xAIL_5_0 xRDR_5_0] flow_1)) (= mode_5 1) (forall_t 1 [0 time_5] (>= tau_5_t 0)) (>= tau_5_t 0) (>= tau_5_0 0) (forall_t 1 [0 time_5] (<= tau_5_t 1)) (<= tau_5_t 1) (<= tau_5_0 1) (= mode_6 1) (= tau_5_t 1) (= tau_6_0 0) (= gDir_6_0 gDir_5_t) (= gRDR_6_0 gRDR_5_t) (or (and (= rRDR_6_0 -0.5) (< gRDR_5_t xRDR_5_t)) (and (= rRDR_6_0 0.5) (>= gRDR_5_t xRDR_5_t))) (= xRDR_6_0 xRDR_5_t) (or (and (= rAIL_6_0 -0.25) (< gAIL_5_t xAIL_5_t)) (and (= rAIL_6_0 0.25) (>= gAIL_5_t xAIL_5_t))) (= gAIL_6_0 gAIL_5_t) (= xAIL_6_0 xAIL_5_t) (= psi_6_0 psi_5_t) (= phi_6_0 phi_5_t) (= r_6_0 r_5_t) (= p_6_0 p_5_t) (= beta_6_0 beta_5_t) (= [beta_6_t gAIL_6_t gDir_6_t gRDR_6_t p_6_t phi_6_t psi_6_t r_6_t rAIL_6_t rRDR_6_t tau_6_t xAIL_6_t xRDR_6_t] (integral 0. time_6 [beta_6_0 gAIL_6_0 gDir_6_0 gRDR_6_0 p_6_0 phi_6_0 psi_6_0 r_6_0 rAIL_6_0 rRDR_6_0 tau_6_0 xAIL_6_0 xRDR_6_0] flow_1)) (= mode_6 1) (forall_t 1 [0 time_6] (>= tau_6_t 0)) (>= tau_6_t 0) (>= tau_6_0 0) (forall_t 1 [0 time_6] (<= tau_6_t 1)) (<= tau_6_t 1) (<= tau_6_0 1) (= mode_6 1) (>= tau_6_t 0)))
(check-sat)
(exit)
